
Gurobi 12.0.2 (win64) logging started Sat Feb  7 08:02:25 2026

Set parameter LogFile to value "gurobi_stats_logs\m30n10\sample_data_44_size_10_PCP.log"
Set parameter MIPGap to value 0.01
Set parameter TimeLimit to value 0
Gurobi Optimizer version 12.0.2 build v12.0.2rc0 (win64 - Windows 11+.0 (26200.2))

CPU model: AMD Ryzen 7 8845H w/ Radeon 780M Graphics, instruction set [SSE2|AVX|AVX2|AVX512]
Thread count: 8 physical cores, 16 logical processors, using up to 16 threads

Non-default parameters:
TimeLimit  0
MIPGap  0.01

Optimize a model with 253961 rows, 19632 columns and 1050365 nonzeros
Model fingerprint: 0xbbd6de39
Variable types: 14772 continuous, 4860 integer (4860 binary)
Coefficient statistics:
  Matrix range     [1e-02, 3e+00]
  Objective range  [3e-03, 8e-02]
  Bounds range     [1e+00, 1e+00]
  RHS range        [7e-02, 3e+00]

Explored 0 nodes (0 simplex iterations) in 0.01 seconds (0.00 work units)
Thread count was 1 (of 16 available processors)

Solution count 0

Time limit reached
Best objective -, best bound -, gap -
